100
    1    15    15
    2    52    52
    3    64    64
    4    60    60
    5    74    74
    6    34    34
    7    95    95
    8    74    74
    9    48    48
   10    79    79
   11    37    37
   12     7     7
   13    29    29
   14    63    63
   15    43    43
   16    45    45
   17    61    61
   18    44    44
   19    78    78
   20    64    64
   21    55    55
   22     9     9
   23    83    83
   24    57    57
   25    16    16
   26     5     5
   27    84    84
   28    72    72
   29    28    28
   30    13    13
   31    28    28
   32    26    26
   33    25    25
   34    88    88
   35    40    40
   36    32    32
   37    89    89
   38    12    12
   39    30    30
   40    39    39
   41    53    53
   42    75    75
   43    23    23
   44    81    81
   45    76    76
   46    26    26
   47    54    54
   48    58    58
   49    40    40
   50    23    23
   51    16    16
   52    84    84
   53    58    58
   54    42    42
   55    55    55
   56    21    21
   57    53    53
   58    52    52
   59    95    95
   60    58    58
   61    93    93
   62    83    83
   63    63    63
   64    34    34
   65    67    67
   66    70    70
   67    13    13
   68    21    21
   69    48    48
   70     1     1
   71    13    13
   72    39    39
   73    24    24
   74    55    55
   75    48    48
   76    57    57
   77   100   100
   78    76    76
   79    34    34
   80    17    17
   81    23    23
   82    10    10
   83    57    57
   84    71    71
   85     6     6
   86    75    75
   87    45    45
   88    33    33
   89    35    35
   90    20    20
   91    94    94
   92    41    41
   93    13    13
   94     6     6
   95    29    29
   96    98    98
   97    95    95
   98    94    94
   99    52    52
  100    71    71
4053
